145 7 56 85 120 186 184 158 50 126 23 127 51 182 40 173 108 77 57 59 198 151 175 8 167 160 52 19 39 156 129 187 0 149 69 140 128 98 102 94 60 106 153 73 46 135 21 113 6 142 38 124 5 30 176 31 24 188 62 14 112 196 110 54 18 132 28 58 61 177 134 27 115 146 1 161 41 111 180 70 53 189 71 4 67 148 12 68 32 2 154 44 104 195 109 157 36 76 164 78 83 192 29 185 144 42 15 9 137 48 121 33 170 199 26 89 197 74 37 131 193 123 84 101 45 10 55 22 99 163 181 63 183 66 87 136 100 169 95 93 3 35 141 147 190 90 72 92 166 168 152 119 88 34 179 125 162 107 20 130 178 13 11 139 43 97 64 103 86 105 75 159 25 191 174 118 47 17 91 122 117 116 16 96 133 194 114 138 155 143 49 150 172 80 65 81 165 171 79 82 

